; generated by Theta
; https://github.com/ftsrg/theta/

(set-logic HORN)

; declarations
(declare-fun main_init_0 ((_ FloatingPoint 11 53) (_ FloatingPoint 11 53) (_ FloatingPoint 11 53) (_ FloatingPoint 11 53) (_ FloatingPoint 11 53) (_ FloatingPoint 11 53) (_ BitVec 32) (_ BitVec 1) (_ BitVec 32) (_ BitVec 32) (_ BitVec 32) (_ FloatingPoint 11 53) (_ FloatingPoint 11 53)) Bool)
(declare-fun main_final_2 ((_ FloatingPoint 11 53) (_ FloatingPoint 11 53) (_ FloatingPoint 11 53) (_ FloatingPoint 11 53) (_ FloatingPoint 11 53) (_ FloatingPoint 11 53) (_ BitVec 32) (_ BitVec 1) (_ BitVec 32) (_ BitVec 32) (_ BitVec 32) (_ FloatingPoint 11 53) (_ FloatingPoint 11 53)) Bool)
(declare-fun __loc_79154_4 ((_ FloatingPoint 11 53) (_ FloatingPoint 11 53) (_ FloatingPoint 11 53) (_ FloatingPoint 11 53) (_ FloatingPoint 11 53) (_ FloatingPoint 11 53) (_ BitVec 32) (_ BitVec 1) (_ BitVec 32) (_ BitVec 32) (_ BitVec 32) (_ FloatingPoint 11 53) (_ FloatingPoint 11 53)) Bool)
(declare-fun __loc_71152_5 ((_ FloatingPoint 11 53) (_ FloatingPoint 11 53) (_ FloatingPoint 11 53) (_ FloatingPoint 11 53) (_ FloatingPoint 11 53) (_ FloatingPoint 11 53) (_ BitVec 32) (_ BitVec 1) (_ BitVec 32) (_ BitVec 32) (_ BitVec 32) (_ FloatingPoint 11 53) (_ FloatingPoint 11 53)) Bool)
(declare-fun __loc_68150_6 ((_ FloatingPoint 11 53) (_ FloatingPoint 11 53) (_ FloatingPoint 11 53) (_ FloatingPoint 11 53) (_ FloatingPoint 11 53) (_ FloatingPoint 11 53) (_ BitVec 32) (_ BitVec 1) (_ BitVec 32) (_ BitVec 32) (_ BitVec 32) (_ FloatingPoint 11 53) (_ FloatingPoint 11 53)) Bool)
(declare-fun __loc_69151_7 ((_ FloatingPoint 11 53) (_ FloatingPoint 11 53) (_ FloatingPoint 11 53) (_ FloatingPoint 11 53) (_ FloatingPoint 11 53) (_ FloatingPoint 11 53) (_ BitVec 32) (_ BitVec 1) (_ BitVec 32) (_ BitVec 32) (_ BitVec 32) (_ FloatingPoint 11 53) (_ FloatingPoint 11 53)) Bool)
(declare-fun __loc_78153_3 ((_ FloatingPoint 11 53) (_ FloatingPoint 11 53) (_ FloatingPoint 11 53) (_ FloatingPoint 11 53) (_ FloatingPoint 11 53) (_ FloatingPoint 11 53) (_ BitVec 32) (_ BitVec 1) (_ BitVec 32) (_ BitVec 32) (_ BitVec 32) (_ FloatingPoint 11 53) (_ FloatingPoint 11 53)) Bool)
(declare-fun __loc_32162_1 ((_ FloatingPoint 11 53) (_ FloatingPoint 11 53) (_ FloatingPoint 11 53) (_ FloatingPoint 11 53) (_ FloatingPoint 11 53) (_ FloatingPoint 11 53) (_ BitVec 32) (_ BitVec 1) (_ BitVec 32) (_ BitVec 32) (_ BitVec 32) (_ FloatingPoint 11 53) (_ FloatingPoint 11 53)) Bool)
(declare-fun main_error_8 ((_ FloatingPoint 11 53) (_ FloatingPoint 11 53) (_ FloatingPoint 11 53) (_ FloatingPoint 11 53) (_ FloatingPoint 11 53) (_ FloatingPoint 11 53) (_ BitVec 32) (_ BitVec 1) (_ BitVec 32) (_ BitVec 32) (_ BitVec 32) (_ FloatingPoint 11 53) (_ FloatingPoint 11 53)) Bool)

; facts, rules, queries
(assert (forall ((|call_cos_ret6| (_ FloatingPoint 11 53)) (|call_sin_ret5| (_ FloatingPoint 11 53)) (|call_cos_ret3| (_ FloatingPoint 11 53)) (|benchmark09::x| (_ FloatingPoint 11 53)) (|benchmark09::y| (_ FloatingPoint 11 53)) (|call_sin_ret4| (_ FloatingPoint 11 53)) (|__VERIFIER_assert::cond| (_ BitVec 32)) (|__VERIFIER_assert_ret| (_ BitVec 1)) (|main_ret| (_ BitVec 32)) (|benchmark09_ret| (_ BitVec 32)) (|call_benchmark09_ret9| (_ BitVec 32)) (|main::x| (_ FloatingPoint 11 53)) (|main::y| (_ FloatingPoint 11 53))) (=> true (main_init_0 |call_cos_ret6| |call_sin_ret5| |call_cos_ret3| |benchmark09::x| |benchmark09::y| |call_sin_ret4| |__VERIFIER_assert::cond| |__VERIFIER_assert_ret| |main_ret| |benchmark09_ret| |call_benchmark09_ret9| |main::x| |main::y|))))
(assert (forall ((|call_cos_ret6| (_ FloatingPoint 11 53)) (|call_sin_ret5| (_ FloatingPoint 11 53)) (|call_cos_ret3| (_ FloatingPoint 11 53)) (|benchmark09::x| (_ FloatingPoint 11 53)) (|benchmark09::y| (_ FloatingPoint 11 53)) (|call_sin_ret4| (_ FloatingPoint 11 53)) (|__VERIFIER_assert::cond| (_ BitVec 32)) (|__VERIFIER_assert_ret_new| (_ BitVec 1)) (|main_ret_new| (_ BitVec 32)) (|benchmark09_ret| (_ BitVec 32)) (|call_benchmark09_ret9| (_ BitVec 32)) (|main::x| (_ FloatingPoint 11 53)) (|main::y| (_ FloatingPoint 11 53)) (|__VERIFIER_assert_ret| (_ BitVec 1)) (|main_ret| (_ BitVec 32))) (=> (and (__loc_32162_1 |call_cos_ret6| |call_sin_ret5| |call_cos_ret3| |benchmark09::x| |benchmark09::y| |call_sin_ret4| |__VERIFIER_assert::cond| |__VERIFIER_assert_ret| |main_ret| |benchmark09_ret| |call_benchmark09_ret9| |main::x| |main::y|) (and (and (not (= |__VERIFIER_assert::cond| #b00000000000000000000000000000000)) (= |__VERIFIER_assert_ret_new| #b0)) (= |main_ret_new| #b00000000000000000000000000000000))) (main_final_2 |call_cos_ret6| |call_sin_ret5| |call_cos_ret3| |benchmark09::x| |benchmark09::y| |call_sin_ret4| |__VERIFIER_assert::cond| |__VERIFIER_assert_ret_new| |main_ret_new| |benchmark09_ret| |call_benchmark09_ret9| |main::x| |main::y|))))
(assert (forall ((|call_cos_ret6| (_ FloatingPoint 11 53)) (|call_sin_ret5| (_ FloatingPoint 11 53)) (|call_cos_ret3| (_ FloatingPoint 11 53)) (|benchmark09::x| (_ FloatingPoint 11 53)) (|benchmark09::y| (_ FloatingPoint 11 53)) (|call_sin_ret4| (_ FloatingPoint 11 53)) (|__VERIFIER_assert::cond| (_ BitVec 32)) (|__VERIFIER_assert_ret| (_ BitVec 1)) (|main_ret| (_ BitVec 32)) (|benchmark09_ret| (_ BitVec 32)) (|call_benchmark09_ret9| (_ BitVec 32)) (|main::x| (_ FloatingPoint 11 53)) (|main::y| (_ FloatingPoint 11 53))) (=> (and (__loc_78153_3 |call_cos_ret6| |call_sin_ret5| |call_cos_ret3| |benchmark09::x| |benchmark09::y| |call_sin_ret4| |__VERIFIER_assert::cond| |__VERIFIER_assert_ret| |main_ret| |benchmark09_ret| |call_benchmark09_ret9| |main::x| |main::y|) true) (__loc_79154_4 |call_cos_ret6| |call_sin_ret5| |call_cos_ret3| |benchmark09::x| |benchmark09::y| |call_sin_ret4| |__VERIFIER_assert::cond| |__VERIFIER_assert_ret| |main_ret| |benchmark09_ret| |call_benchmark09_ret9| |main::x| |main::y|))))
(assert (forall ((|call_cos_ret6| (_ FloatingPoint 11 53)) (|call_sin_ret5| (_ FloatingPoint 11 53)) (|call_cos_ret3| (_ FloatingPoint 11 53)) (|benchmark09::x| (_ FloatingPoint 11 53)) (|benchmark09::y| (_ FloatingPoint 11 53)) (|call_sin_ret4| (_ FloatingPoint 11 53)) (|__VERIFIER_assert::cond| (_ BitVec 32)) (|__VERIFIER_assert_ret| (_ BitVec 1)) (|main_ret| (_ BitVec 32)) (|benchmark09_ret| (_ BitVec 32)) (|call_benchmark09_ret9| (_ BitVec 32)) (|main::x| (_ FloatingPoint 11 53)) (|main::y| (_ FloatingPoint 11 53))) (=> (and (__loc_79154_4 |call_cos_ret6| |call_sin_ret5| |call_cos_ret3| |benchmark09::x| |benchmark09::y| |call_sin_ret4| |__VERIFIER_assert::cond| |__VERIFIER_assert_ret| |main_ret| |benchmark09_ret| |call_benchmark09_ret9| |main::x| |main::y|) true) (__loc_71152_5 |call_cos_ret6| |call_sin_ret5| |call_cos_ret3| |benchmark09::x| |benchmark09::y| |call_sin_ret4| |__VERIFIER_assert::cond| |__VERIFIER_assert_ret| |main_ret| |benchmark09_ret| |call_benchmark09_ret9| |main::x| |main::y|))))
(assert (forall ((|call_cos_ret6| (_ FloatingPoint 11 53)) (|call_sin_ret5| (_ FloatingPoint 11 53)) (|call_cos_ret3| (_ FloatingPoint 11 53)) (|benchmark09::x_new| (_ FloatingPoint 11 53)) (|benchmark09::y_new| (_ FloatingPoint 11 53)) (|call_sin_ret4| (_ FloatingPoint 11 53)) (|__VERIFIER_assert::cond| (_ BitVec 32)) (|__VERIFIER_assert_ret| (_ BitVec 1)) (|main_ret| (_ BitVec 32)) (|benchmark09_ret| (_ BitVec 32)) (|call_benchmark09_ret9| (_ BitVec 32)) (|main::x_new| (_ FloatingPoint 11 53)) (|main::y_new| (_ FloatingPoint 11 53)) (|benchmark09::x| (_ FloatingPoint 11 53)) (|benchmark09::y| (_ FloatingPoint 11 53)) (|main::x| (_ FloatingPoint 11 53)) (|main::y| (_ FloatingPoint 11 53))) (=> (and (main_init_0 |call_cos_ret6| |call_sin_ret5| |call_cos_ret3| |benchmark09::x| |benchmark09::y| |call_sin_ret4| |__VERIFIER_assert::cond| |__VERIFIER_assert_ret| |main_ret| |benchmark09_ret| |call_benchmark09_ret9| |main::x| |main::y|) (and (and (and (and (and true true) true) true) (= |benchmark09::x_new| |main::x_new|)) (= |benchmark09::y_new| |main::y_new|))) (__loc_68150_6 |call_cos_ret6| |call_sin_ret5| |call_cos_ret3| |benchmark09::x_new| |benchmark09::y_new| |call_sin_ret4| |__VERIFIER_assert::cond| |__VERIFIER_assert_ret| |main_ret| |benchmark09_ret| |call_benchmark09_ret9| |main::x_new| |main::y_new|))))
(assert (forall ((|call_cos_ret6| (_ FloatingPoint 11 53)) (|call_sin_ret5| (_ FloatingPoint 11 53)) (|call_cos_ret3| (_ FloatingPoint 11 53)) (|benchmark09::x| (_ FloatingPoint 11 53)) (|benchmark09::y| (_ FloatingPoint 11 53)) (|call_sin_ret4| (_ FloatingPoint 11 53)) (|__VERIFIER_assert::cond| (_ BitVec 32)) (|__VERIFIER_assert_ret| (_ BitVec 1)) (|main_ret| (_ BitVec 32)) (|benchmark09_ret| (_ BitVec 32)) (|call_benchmark09_ret9| (_ BitVec 32)) (|main::x| (_ FloatingPoint 11 53)) (|main::y| (_ FloatingPoint 11 53))) (=> (and (__loc_68150_6 |call_cos_ret6| |call_sin_ret5| |call_cos_ret3| |benchmark09::x| |benchmark09::y| |call_sin_ret4| |__VERIFIER_assert::cond| |__VERIFIER_assert_ret| |main_ret| |benchmark09_ret| |call_benchmark09_ret9| |main::x| |main::y|) true) (__loc_69151_7 |call_cos_ret6| |call_sin_ret5| |call_cos_ret3| |benchmark09::x| |benchmark09::y| |call_sin_ret4| |__VERIFIER_assert::cond| |__VERIFIER_assert_ret| |main_ret| |benchmark09_ret| |call_benchmark09_ret9| |main::x| |main::y|))))
(assert (forall ((|call_cos_ret6| (_ FloatingPoint 11 53)) (|call_sin_ret5| (_ FloatingPoint 11 53)) (|call_cos_ret3| (_ FloatingPoint 11 53)) (|benchmark09::x| (_ FloatingPoint 11 53)) (|benchmark09::y| (_ FloatingPoint 11 53)) (|call_sin_ret4| (_ FloatingPoint 11 53)) (|__VERIFIER_assert::cond| (_ BitVec 32)) (|__VERIFIER_assert_ret| (_ BitVec 1)) (|main_ret| (_ BitVec 32)) (|benchmark09_ret| (_ BitVec 32)) (|call_benchmark09_ret9| (_ BitVec 32)) (|main::x| (_ FloatingPoint 11 53)) (|main::y| (_ FloatingPoint 11 53))) (=> (and (__loc_69151_7 |call_cos_ret6| |call_sin_ret5| |call_cos_ret3| |benchmark09::x| |benchmark09::y| |call_sin_ret4| |__VERIFIER_assert::cond| |__VERIFIER_assert_ret| |main_ret| |benchmark09_ret| |call_benchmark09_ret9| |main::x| |main::y|) true) (__loc_78153_3 |call_cos_ret6| |call_sin_ret5| |call_cos_ret3| |benchmark09::x| |benchmark09::y| |call_sin_ret4| |__VERIFIER_assert::cond| |__VERIFIER_assert_ret| |main_ret| |benchmark09_ret| |call_benchmark09_ret9| |main::x| |main::y|))))
(assert (forall ((|call_cos_ret6| (_ FloatingPoint 11 53)) (|call_sin_ret5| (_ FloatingPoint 11 53)) (|call_cos_ret3| (_ FloatingPoint 11 53)) (|benchmark09::x| (_ FloatingPoint 11 53)) (|benchmark09::y| (_ FloatingPoint 11 53)) (|call_sin_ret4| (_ FloatingPoint 11 53)) (|__VERIFIER_assert::cond_new| (_ BitVec 32)) (|__VERIFIER_assert_ret| (_ BitVec 1)) (|main_ret| (_ BitVec 32)) (|benchmark09_ret_new| (_ BitVec 32)) (|call_benchmark09_ret9_new| (_ BitVec 32)) (|main::x| (_ FloatingPoint 11 53)) (|main::y| (_ FloatingPoint 11 53)) (|__VERIFIER_assert::cond| (_ BitVec 32)) (|benchmark09_ret| (_ BitVec 32)) (|call_benchmark09_ret9| (_ BitVec 32))) (=> (and (__loc_71152_5 |call_cos_ret6| |call_sin_ret5| |call_cos_ret3| |benchmark09::x| |benchmark09::y| |call_sin_ret4| |__VERIFIER_assert::cond| |__VERIFIER_assert_ret| |main_ret| |benchmark09_ret| |call_benchmark09_ret9| |main::x| |main::y|) (and (and (and (fp.lt |call_sin_ret4| |call_cos_ret6|) (= |benchmark09_ret_new| #b00000000000000000000000000000001)) (= |call_benchmark09_ret9_new| |benchmark09_ret_new|)) (= |__VERIFIER_assert::cond_new| (ite (= |call_benchmark09_ret9_new| #b00000000000000000000000000000000) #b00000000000000000000000000000001 #b00000000000000000000000000000000)))) (__loc_32162_1 |call_cos_ret6| |call_sin_ret5| |call_cos_ret3| |benchmark09::x| |benchmark09::y| |call_sin_ret4| |__VERIFIER_assert::cond_new| |__VERIFIER_assert_ret| |main_ret| |benchmark09_ret_new| |call_benchmark09_ret9_new| |main::x| |main::y|))))
(assert (forall ((|call_cos_ret6| (_ FloatingPoint 11 53)) (|call_sin_ret5| (_ FloatingPoint 11 53)) (|call_cos_ret3| (_ FloatingPoint 11 53)) (|benchmark09::x| (_ FloatingPoint 11 53)) (|benchmark09::y| (_ FloatingPoint 11 53)) (|call_sin_ret4| (_ FloatingPoint 11 53)) (|__VERIFIER_assert::cond_new| (_ BitVec 32)) (|__VERIFIER_assert_ret| (_ BitVec 1)) (|main_ret| (_ BitVec 32)) (|benchmark09_ret_new| (_ BitVec 32)) (|call_benchmark09_ret9_new| (_ BitVec 32)) (|main::x| (_ FloatingPoint 11 53)) (|main::y| (_ FloatingPoint 11 53)) (|__VERIFIER_assert::cond| (_ BitVec 32)) (|benchmark09_ret| (_ BitVec 32)) (|call_benchmark09_ret9| (_ BitVec 32))) (=> (and (__loc_71152_5 |call_cos_ret6| |call_sin_ret5| |call_cos_ret3| |benchmark09::x| |benchmark09::y| |call_sin_ret4| |__VERIFIER_assert::cond| |__VERIFIER_assert_ret| |main_ret| |benchmark09_ret| |call_benchmark09_ret9| |main::x| |main::y|) (and (and (and (not (fp.lt |call_sin_ret4| |call_cos_ret6|)) (= |benchmark09_ret_new| #b00000000000000000000000000000000)) (= |call_benchmark09_ret9_new| |benchmark09_ret_new|)) (= |__VERIFIER_assert::cond_new| (ite (= |call_benchmark09_ret9_new| #b00000000000000000000000000000000) #b00000000000000000000000000000001 #b00000000000000000000000000000000)))) (__loc_32162_1 |call_cos_ret6| |call_sin_ret5| |call_cos_ret3| |benchmark09::x| |benchmark09::y| |call_sin_ret4| |__VERIFIER_assert::cond_new| |__VERIFIER_assert_ret| |main_ret| |benchmark09_ret_new| |call_benchmark09_ret9_new| |main::x| |main::y|))))
(assert (forall ((|call_cos_ret6| (_ FloatingPoint 11 53)) (|call_sin_ret5| (_ FloatingPoint 11 53)) (|call_cos_ret3| (_ FloatingPoint 11 53)) (|benchmark09::x| (_ FloatingPoint 11 53)) (|benchmark09::y| (_ FloatingPoint 11 53)) (|call_sin_ret4| (_ FloatingPoint 11 53)) (|__VERIFIER_assert::cond| (_ BitVec 32)) (|__VERIFIER_assert_ret| (_ BitVec 1)) (|main_ret| (_ BitVec 32)) (|benchmark09_ret| (_ BitVec 32)) (|call_benchmark09_ret9| (_ BitVec 32)) (|main::x| (_ FloatingPoint 11 53)) (|main::y| (_ FloatingPoint 11 53))) (=> (and (__loc_32162_1 |call_cos_ret6| |call_sin_ret5| |call_cos_ret3| |benchmark09::x| |benchmark09::y| |call_sin_ret4| |__VERIFIER_assert::cond| |__VERIFIER_assert_ret| |main_ret| |benchmark09_ret| |call_benchmark09_ret9| |main::x| |main::y|) (= |__VERIFIER_assert::cond| #b00000000000000000000000000000000)) (main_error_8 |call_cos_ret6| |call_sin_ret5| |call_cos_ret3| |benchmark09::x| |benchmark09::y| |call_sin_ret4| |__VERIFIER_assert::cond| |__VERIFIER_assert_ret| |main_ret| |benchmark09_ret| |call_benchmark09_ret9| |main::x| |main::y|))))
(assert (forall ((|call_cos_ret6| (_ FloatingPoint 11 53)) (|call_sin_ret5| (_ FloatingPoint 11 53)) (|call_cos_ret3| (_ FloatingPoint 11 53)) (|benchmark09::x| (_ FloatingPoint 11 53)) (|benchmark09::y| (_ FloatingPoint 11 53)) (|call_sin_ret4| (_ FloatingPoint 11 53)) (|__VERIFIER_assert::cond| (_ BitVec 32)) (|__VERIFIER_assert_ret| (_ BitVec 1)) (|main_ret| (_ BitVec 32)) (|benchmark09_ret| (_ BitVec 32)) (|call_benchmark09_ret9| (_ BitVec 32)) (|main::x| (_ FloatingPoint 11 53)) (|main::y| (_ FloatingPoint 11 53))) (=> (main_error_8 |call_cos_ret6| |call_sin_ret5| |call_cos_ret3| |benchmark09::x| |benchmark09::y| |call_sin_ret4| |__VERIFIER_assert::cond| |__VERIFIER_assert_ret| |main_ret| |benchmark09_ret| |call_benchmark09_ret9| |main::x| |main::y|) false)))

(check-sat)
(exit)